%chk=[NAME].chk
#p opt freq
[NAME]
[Charge] [Multiplicity]
[GEOMETRY]
